 Ga2SeTe                                
   1.00000000000000     
     3.9624429087813717    0.0000000000007387    0.0000000000000000
    -1.9812214543394098    3.4315762199979725   -0.0000000000000000
     0.0000000000000000   -0.0000000000000000   21.5420069434185351
   Ga   Se   Te
     2     1     1
Direct
  0.3333333333333357  0.6666666666666643  0.4378124776243080
  0.3333333333333357  0.6666666666666643  0.5513484465867869
  0.0000000000000000  0.0000000000000000  0.3868326908968961
 -0.0000000000000000 -0.0000000000000000  0.6133408038920040
