 Ga2SeTe                                
   1.00000000000000     
     3.9642734173827283   -0.0000091277867719    0.0000009692870501
    -1.9821446130328728    3.4331568869992002   -0.0000009586771483
     0.0000053457160047   -0.0000030134313037   21.5459629752263666
   Ga   Se   Te
     2     1     1
Direct
  0.3333336630592361  0.6666663365340231  0.4377782071793535
  0.3333333625058237  0.6666666400345551  0.5513194315000701
 -0.0000002980965954  0.0000002966806379  0.3868599641279597
 -0.0000000608017929  0.0000000600841125  0.6133768161926119
